Route #1: 20 107 41 7 54 121
Route #2: 113 33 5
Route #3: 120 75
Route #4: 60 90 102
Route #5: 38 96
Route #6: 35 103
Route #7: 37 12
Route #8: 18 112
Route #9: 86 111
Route #10: 31 3
Route #11: 108 27 1 46 63 79 117
Route #12: 72 32 57
Route #13: 91 100 48
Route #14: 26 93
Route #15: 52 43 106 76
Route #16: 56 49 82
Route #17: 50 34 6 2 124 28 78
Route #18: 87 114 11 19 9 59
Route #19: 83 21 77 84
Route #20: 51 105 89 88 115 70
Route #21: 10 69 67
Route #22: 24 23 13 74 97 123 14
Route #23: 58 80 104 71 98
Route #24: 45 119 29 64
Route #25: 73 99 16 42
Route #26: 8 39 53
Route #27: 44 81 92 15 17 116 66
Route #28: 101 4 65 40 22 47 118 25
Route #29: 61 122 110
Route #30: 62 85 30 55 36 109 68 94 95
Cost 55690.000000